benchmark/results/graph__10-1000-0.10-04_7/graph__10-1000-0.10-04_7_Quinton_Benders_master.lp
\ This file has been generated by DOcplex
\ ENCODING=ISO-8859-1
\Problem name: Quinton Benders_master

Maximize
 obj: z
Subject To
 c1: m_a0_proc_1 + m_a0_proc_2 + m_a0_proc_3 = 1
 c2: m_a1_proc_0 + m_a1_proc_1 + m_a1_proc_2 = 1
 c3: m_a2_proc_1 + m_a2_proc_2 + m_a2_proc_3 = 1
 c4: m_a3_proc_0 + m_a3_proc_1 + m_a3_proc_2 = 1
 c5: m_a4_proc_0 + m_a4_proc_1 + m_a4_proc_2 + m_a4_proc_3 = 1
 c6: m_a5_proc_0 + m_a5_proc_2 + m_a5_proc_3 = 1
 c7: m_a6_proc_0 + m_a6_proc_1 + m_a6_proc_2 + m_a6_proc_3 = 1
 c8: m_a7_proc_0 + m_a7_proc_2 + m_a7_proc_3 = 1
 c9: m_a8_proc_0 + m_a8_proc_2 + m_a8_proc_3 = 1
 c10: m_a9_proc_0 + m_a9_proc_1 + m_a9_proc_2 + m_a9_proc_3 = 1
 c11: K_a0_a1 + K_a1_a0 = 1
 c12: K_a0_a1 + K_a1_a0 = 1
 c13: K_a0_a2 + K_a2_a0 = 1
 c14: K_a0_a2 + K_a2_a0 = 1
 c15: K_a0_a3 + K_a3_a0 = 1
 c16: K_a0_a3 + K_a3_a0 = 1
 c17: K_a0_a4 + K_a4_a0 = 1
 c18: K_a0_a4 + K_a4_a0 = 1
 c19: K_a0_a5 + K_a5_a0 = 1
 c20: K_a0_a5 + K_a5_a0 = 1
 c21: K_a0_a6 + K_a6_a0 = 1
 c22: K_a0_a6 + K_a6_a0 = 1
 c23: K_a0_a7 + K_a7_a0 = 1
 c24: K_a0_a7 + K_a7_a0 = 1
 c25: K_a0_a8 + K_a8_a0 = 1
 c26: K_a0_a8 + K_a8_a0 = 1
 c27: K_a0_a9 + K_a9_a0 = 1
 c28: K_a0_a9 + K_a9_a0 = 1
 c29: K_a1_a2 + K_a2_a1 = 1
 c30: K_a1_a2 + K_a2_a1 = 1
 c31: K_a1_a3 + K_a3_a1 = 1
 c32: K_a1_a3 + K_a3_a1 = 1
 c33: K_a1_a4 + K_a4_a1 = 1
 c34: K_a1_a4 + K_a4_a1 = 1
 c35: K_a1_a5 + K_a5_a1 = 1
 c36: K_a1_a5 + K_a5_a1 = 1
 c37: K_a1_a6 + K_a6_a1 = 1
 c38: K_a1_a6 + K_a6_a1 = 1
 c39: K_a1_a7 + K_a7_a1 = 1
 c40: K_a1_a7 + K_a7_a1 = 1
 c41: K_a1_a8 + K_a8_a1 = 1
 c42: K_a1_a8 + K_a8_a1 = 1
 c43: K_a1_a9 + K_a9_a1 = 1
 c44: K_a1_a9 + K_a9_a1 = 1
 c45: K_a2_a3 + K_a3_a2 = 1
 c46: K_a2_a3 + K_a3_a2 = 1
 c47: K_a2_a4 + K_a4_a2 = 1
 c48: K_a2_a4 + K_a4_a2 = 1
 c49: K_a2_a5 + K_a5_a2 = 1
 c50: K_a2_a5 + K_a5_a2 = 1
 c51: K_a2_a6 + K_a6_a2 = 1
 c52: K_a2_a6 + K_a6_a2 = 1
 c53: K_a2_a7 + K_a7_a2 = 1
 c54: K_a2_a7 + K_a7_a2 = 1
 c55: K_a2_a8 + K_a8_a2 = 1
 c56: K_a2_a8 + K_a8_a2 = 1
 c57: K_a2_a9 + K_a9_a2 = 1
 c58: K_a2_a9 + K_a9_a2 = 1
 c59: K_a3_a4 + K_a4_a3 = 1
 c60: K_a3_a4 + K_a4_a3 = 1
 c61: K_a3_a5 + K_a5_a3 = 1
 c62: K_a3_a5 + K_a5_a3 = 1
 c63: K_a3_a6 + K_a6_a3 = 1
 c64: K_a3_a6 + K_a6_a3 = 1
 c65: K_a3_a7 + K_a7_a3 = 1
 c66: K_a3_a7 + K_a7_a3 = 1
 c67: K_a3_a8 + K_a8_a3 = 1
 c68: K_a3_a8 + K_a8_a3 = 1
 c69: K_a3_a9 + K_a9_a3 = 1
 c70: K_a3_a9 + K_a9_a3 = 1
 c71: K_a4_a5 + K_a5_a4 = 1
 c72: K_a4_a5 + K_a5_a4 = 1
 c73: K_a4_a6 + K_a6_a4 = 1
 c74: K_a4_a6 + K_a6_a4 = 1
 c75: K_a4_a7 + K_a7_a4 = 1
 c76: K_a4_a7 + K_a7_a4 = 1
 c77: K_a4_a8 + K_a8_a4 = 1
 c78: K_a4_a8 + K_a8_a4 = 1
 c79: K_a4_a9 + K_a9_a4 = 1
 c80: K_a4_a9 + K_a9_a4 = 1
 c81: K_a5_a6 + K_a6_a5 = 1
 c82: K_a5_a6 + K_a6_a5 = 1
 c83: K_a5_a7 + K_a7_a5 = 1
 c84: K_a5_a7 + K_a7_a5 = 1
 c85: K_a5_a8 + K_a8_a5 = 1
 c86: K_a5_a8 + K_a8_a5 = 1
 c87: K_a5_a9 + K_a9_a5 = 1
 c88: K_a5_a9 + K_a9_a5 = 1
 c89: K_a6_a7 + K_a7_a6 = 1
 c90: K_a6_a7 + K_a7_a6 = 1
 c91: K_a6_a8 + K_a8_a6 = 1
 c92: K_a6_a8 + K_a8_a6 = 1
 c93: K_a6_a9 + K_a9_a6 = 1
 c94: K_a6_a9 + K_a9_a6 = 1
 c95: K_a7_a8 + K_a8_a7 = 1
 c96: K_a7_a8 + K_a8_a7 = 1
 c97: K_a7_a9 + K_a9_a7 = 1
 c98: K_a7_a9 + K_a9_a7 = 1
 c99: K_a8_a9 + K_a9_a8 = 1
 c100: K_a8_a9 + K_a9_a8 = 1
 c101: z <= 99999999989999992832
 c102: - 1289 m_a0_proc_1 + w_a1 - w_a0 >= -1289.937719824998
 c103: - 1289 m_a0_proc_1 + w_a3 - w_a0 >= -1288.937719824998
 c104: - 1289 m_a0_proc_1 + w_a9 - w_a0 >= -1289.937719824998
 c105: K_a0_a1 - 1289 m_a0_proc_1 - 1289 m_a1_proc_1 + w_a1 - w_a0 >= 
       -2577.937719824998
 c106: K_a0_a2 - 1289 m_a0_proc_1 - 1289 m_a2_proc_1 + w_a2 - w_a0 >= 
       -2577.937719824998
 c107: K_a0_a3 - 1289 m_a0_proc_1 - 1289 m_a3_proc_1 + w_a3 - w_a0 >= 
       -2577.937719824998
 c108: K_a0_a4 - 1289 m_a0_proc_1 - 1289 m_a4_proc_1 + w_a4 - w_a0 >= 
       -2577.937719824998
 c109: K_a0_a6 - 1289 m_a0_proc_1 - 1289 m_a6_proc_1 + w_a6 - w_a0 >= 
       -2577.937719824998
 c110: K_a0_a9 - 1289 m_a0_proc_1 - 1289 m_a9_proc_1 + w_a9 - w_a0 >= 
       -2577.937719824998
 c111: - 1289 m_a0_proc_2 + w_a1 - w_a0 >= -1289.959509307712
 c112: - 1289 m_a0_proc_2 + w_a3 - w_a0 >= -1288.959509307712
 c113: - 1289 m_a0_proc_2 + w_a9 - w_a0 >= -1289.959509307712
 c114: K_a0_a1 - 1289 m_a0_proc_2 - 1289 m_a1_proc_2 + w_a1 - w_a0 >= 
       -2577.959509307712
 c115: K_a0_a2 - 1289 m_a0_proc_2 - 1289 m_a2_proc_2 + w_a2 - w_a0 >= 
       -2577.959509307712
 c116: K_a0_a3 - 1289 m_a0_proc_2 - 1289 m_a3_proc_2 + w_a3 - w_a0 >= 
       -2577.959509307712
 c117: K_a0_a4 - 1289 m_a0_proc_2 - 1289 m_a4_proc_2 + w_a4 - w_a0 >= 
       -2577.959509307712
 c118: K_a0_a5 - 1289 m_a0_proc_2 - 1289 m_a5_proc_2 + w_a5 - w_a0 >= 
       -2577.959509307712
 c119: K_a0_a6 - 1289 m_a0_proc_2 - 1289 m_a6_proc_2 + w_a6 - w_a0 >= 
       -2577.959509307712
 c120: K_a0_a7 - 1289 m_a0_proc_2 - 1289 m_a7_proc_2 + w_a7 - w_a0 >= 
       -2577.959509307712
 c121: K_a0_a8 - 1289 m_a0_proc_2 - 1289 m_a8_proc_2 + w_a8 - w_a0 >= 
       -2577.959509307712
 c122: K_a0_a9 - 1289 m_a0_proc_2 - 1289 m_a9_proc_2 + w_a9 - w_a0 >= 
       -2577.959509307712
 c123: - 1289 m_a0_proc_3 + w_a1 - w_a0 >= -1289.915072488634
 c124: - 1289 m_a0_proc_3 + w_a3 - w_a0 >= -1288.915072488634
 c125: - 1289 m_a0_proc_3 + w_a9 - w_a0 >= -1289.915072488634
 c126: K_a0_a2 - 1289 m_a0_proc_3 - 1289 m_a2_proc_3 + w_a2 - w_a0 >= 
       -2577.915072488634
 c127: K_a0_a4 - 1289 m_a0_proc_3 - 1289 m_a4_proc_3 + w_a4 - w_a0 >= 
       -2577.915072488634
 c128: K_a0_a5 - 1289 m_a0_proc_3 - 1289 m_a5_proc_3 + w_a5 - w_a0 >= 
       -2577.915072488634
 c129: K_a0_a6 - 1289 m_a0_proc_3 - 1289 m_a6_proc_3 + w_a6 - w_a0 >= 
       -2577.915072488634
 c130: K_a0_a7 - 1289 m_a0_proc_3 - 1289 m_a7_proc_3 + w_a7 - w_a0 >= 
       -2577.915072488634
 c131: K_a0_a8 - 1289 m_a0_proc_3 - 1289 m_a8_proc_3 + w_a8 - w_a0 >= 
       -2577.915072488634
 c132: K_a0_a9 - 1289 m_a0_proc_3 - 1289 m_a9_proc_3 + w_a9 - w_a0 >= 
       -2577.915072488634
 c133: - 1289 m_a1_proc_0 + w_a6 - w_a1 >= -1288.918932830059
 c134: - 1289 m_a1_proc_0 + w_a2 - w_a1 >= -1289.918932830059
 c135: K_a1_a3 - 1289 m_a1_proc_0 - 1289 m_a3_proc_0 + w_a3 - w_a1 >= 
       -2577.918932830059
 c136: K_a1_a4 - 1289 m_a1_proc_0 - 1289 m_a4_proc_0 + w_a4 - w_a1 >= 
       -2577.918932830059
 c137: K_a1_a5 - 1289 m_a1_proc_0 - 1289 m_a5_proc_0 + w_a5 - w_a1 >= 
       -2577.918932830059
 c138: K_a1_a6 - 1289 m_a1_proc_0 - 1289 m_a6_proc_0 + w_a6 - w_a1 >= 
       -2577.918932830059
 c139: K_a1_a7 - 1289 m_a1_proc_0 - 1289 m_a7_proc_0 + w_a7 - w_a1 >= 
       -2577.918932830059
 c140: K_a1_a8 - 1289 m_a1_proc_0 - 1289 m_a8_proc_0 + w_a8 - w_a1 >= 
       -2577.918932830059
 c141: K_a1_a9 - 1289 m_a1_proc_0 - 1289 m_a9_proc_0 + w_a9 - w_a1 >= 
       -2577.918932830059
 c142: - 1289 m_a1_proc_1 + w_a6 - w_a1 >= -1288.902290469246
 c143: - 1289 m_a1_proc_1 + w_a2 - w_a1 >= -1289.902290469246
 c144: K_a1_a0 - 1289 m_a0_proc_1 - 1289 m_a1_proc_1 + w_a0 - w_a1 >= 
       -2577.902290469246
 c145: K_a1_a2 - 1289 m_a1_proc_1 - 1289 m_a2_proc_1 + w_a2 - w_a1 >= 
       -2577.902290469246
 c146: K_a1_a3 - 1289 m_a1_proc_1 - 1289 m_a3_proc_1 + w_a3 - w_a1 >= 
       -2577.902290469246
 c147: K_a1_a4 - 1289 m_a1_proc_1 - 1289 m_a4_proc_1 + w_a4 - w_a1 >= 
       -2577.902290469246
 c148: K_a1_a6 - 1289 m_a1_proc_1 - 1289 m_a6_proc_1 + w_a6 - w_a1 >= 
       -2577.902290469246
 c149: K_a1_a9 - 1289 m_a1_proc_1 - 1289 m_a9_proc_1 + w_a9 - w_a1 >= 
       -2577.902290469246
 c150: - 1289 m_a1_proc_2 + w_a6 - w_a1 >= -1288.913356781333
 c151: - 1289 m_a1_proc_2 + w_a2 - w_a1 >= -1289.913356781333
 c152: K_a1_a0 - 1289 m_a0_proc_2 - 1289 m_a1_proc_2 + w_a0 - w_a1 >= 
       -2577.913356781333
 c153: K_a1_a2 - 1289 m_a1_proc_2 - 1289 m_a2_proc_2 + w_a2 - w_a1 >= 
       -2577.913356781333
 c154: K_a1_a3 - 1289 m_a1_proc_2 - 1289 m_a3_proc_2 + w_a3 - w_a1 >= 
       -2577.913356781333
 c155: K_a1_a4 - 1289 m_a1_proc_2 - 1289 m_a4_proc_2 + w_a4 - w_a1 >= 
       -2577.913356781333
 c156: K_a1_a5 - 1289 m_a1_proc_2 - 1289 m_a5_proc_2 + w_a5 - w_a1 >= 
       -2577.913356781333
 c157: K_a1_a6 - 1289 m_a1_proc_2 - 1289 m_a6_proc_2 + w_a6 - w_a1 >= 
       -2577.913356781333
 c158: K_a1_a7 - 1289 m_a1_proc_2 - 1289 m_a7_proc_2 + w_a7 - w_a1 >= 
       -2577.913356781333
 c159: K_a1_a8 - 1289 m_a1_proc_2 - 1289 m_a8_proc_2 + w_a8 - w_a1 >= 
       -2577.913356781333
 c160: K_a1_a9 - 1289 m_a1_proc_2 - 1289 m_a9_proc_2 + w_a9 - w_a1 >= 
       -2577.913356781333
 c161: - 1289 m_a2_proc_1 + w_a1 - w_a2 >= -1288.896371279060
 c162: - 1289 m_a2_proc_1 + w_a3 - w_a2 >= -1288.896371279060
 c163: K_a2_a0 - 1289 m_a0_proc_1 - 1289 m_a2_proc_1 + w_a0 - w_a2 >= 
       -2577.896371279060
 c164: K_a2_a1 - 1289 m_a1_proc_1 - 1289 m_a2_proc_1 + w_a1 - w_a2 >= 
       -2577.896371279060
 c165: K_a2_a3 - 1289 m_a2_proc_1 - 1289 m_a3_proc_1 + w_a3 - w_a2 >= 
       -2577.896371279060
 c166: K_a2_a4 - 1289 m_a2_proc_1 - 1289 m_a4_proc_1 + w_a4 - w_a2 >= 
       -2577.896371279060
 c167: K_a2_a6 - 1289 m_a2_proc_1 - 1289 m_a6_proc_1 + w_a6 - w_a2 >= 
       -2577.896371279060
 c168: K_a2_a9 - 1289 m_a2_proc_1 - 1289 m_a9_proc_1 + w_a9 - w_a2 >= 
       -2577.896371279060
 c169: - 1289 m_a2_proc_2 + w_a1 - w_a2 >= -1288.923479454405
 c170: - 1289 m_a2_proc_2 + w_a3 - w_a2 >= -1288.923479454405
 c171: K_a2_a0 - 1289 m_a0_proc_2 - 1289 m_a2_proc_2 + w_a0 - w_a2 >= 
       -2577.923479454405
 c172: K_a2_a1 - 1289 m_a1_proc_2 - 1289 m_a2_proc_2 + w_a1 - w_a2 >= 
       -2577.923479454405
 c173: K_a2_a3 - 1289 m_a2_proc_2 - 1289 m_a3_proc_2 + w_a3 - w_a2 >= 
       -2577.923479454405
 c174: K_a2_a4 - 1289 m_a2_proc_2 - 1289 m_a4_proc_2 + w_a4 - w_a2 >= 
       -2577.923479454405
 c175: K_a2_a5 - 1289 m_a2_proc_2 - 1289 m_a5_proc_2 + w_a5 - w_a2 >= 
       -2577.923479454405
 c176: K_a2_a6 - 1289 m_a2_proc_2 - 1289 m_a6_proc_2 + w_a6 - w_a2 >= 
       -2577.923479454405
 c177: K_a2_a7 - 1289 m_a2_proc_2 - 1289 m_a7_proc_2 + w_a7 - w_a2 >= 
       -2577.923479454405
 c178: K_a2_a8 - 1289 m_a2_proc_2 - 1289 m_a8_proc_2 + w_a8 - w_a2 >= 
       -2577.923479454405
 c179: K_a2_a9 - 1289 m_a2_proc_2 - 1289 m_a9_proc_2 + w_a9 - w_a2 >= 
       -2577.923479454405
 c180: - 1289 m_a2_proc_3 + w_a1 - w_a2 >= -1288.927768722656
 c181: - 1289 m_a2_proc_3 + w_a3 - w_a2 >= -1288.927768722656
 c182: K_a2_a0 - 1289 m_a0_proc_3 - 1289 m_a2_proc_3 + w_a0 - w_a2 >= 
       -2577.927768722656
 c183: K_a2_a4 - 1289 m_a2_proc_3 - 1289 m_a4_proc_3 + w_a4 - w_a2 >= 
       -2577.927768722656
 c184: K_a2_a5 - 1289 m_a2_proc_3 - 1289 m_a5_proc_3 + w_a5 - w_a2 >= 
       -2577.927768722656
 c185: K_a2_a6 - 1289 m_a2_proc_3 - 1289 m_a6_proc_3 + w_a6 - w_a2 >= 
       -2577.927768722656
 c186: K_a2_a7 - 1289 m_a2_proc_3 - 1289 m_a7_proc_3 + w_a7 - w_a2 >= 
       -2577.927768722656
 c187: K_a2_a8 - 1289 m_a2_proc_3 - 1289 m_a8_proc_3 + w_a8 - w_a2 >= 
       -2577.927768722656
 c188: K_a2_a9 - 1289 m_a2_proc_3 - 1289 m_a9_proc_3 + w_a9 - w_a2 >= 
       -2577.927768722656
 c189: - 1289 m_a3_proc_0 + w_a2 - w_a3 >= -1289.931972205542
 c190: - 1289 m_a3_proc_0 + w_a7 - w_a3 >= -1289.931972205542
 c191: K_a3_a1 - 1289 m_a1_proc_0 - 1289 m_a3_proc_0 + w_a1 - w_a3 >= 
       -2577.931972205542
 c192: K_a3_a4 - 1289 m_a3_proc_0 - 1289 m_a4_proc_0 + w_a4 - w_a3 >= 
       -2577.931972205542
 c193: K_a3_a5 - 1289 m_a3_proc_0 - 1289 m_a5_proc_0 + w_a5 - w_a3 >= 
       -2577.931972205542
 c194: K_a3_a6 - 1289 m_a3_proc_0 - 1289 m_a6_proc_0 + w_a6 - w_a3 >= 
       -2577.931972205542
 c195: K_a3_a7 - 1289 m_a3_proc_0 - 1289 m_a7_proc_0 + w_a7 - w_a3 >= 
       -2577.931972205542
 c196: K_a3_a8 - 1289 m_a3_proc_0 - 1289 m_a8_proc_0 + w_a8 - w_a3 >= 
       -2577.931972205542
 c197: K_a3_a9 - 1289 m_a3_proc_0 - 1289 m_a9_proc_0 + w_a9 - w_a3 >= 
       -2577.931972205542
 c198: - 1289 m_a3_proc_1 + w_a2 - w_a3 >= -1289.889422664493
 c199: - 1289 m_a3_proc_1 + w_a7 - w_a3 >= -1289.889422664493
 c200: K_a3_a0 - 1289 m_a0_proc_1 - 1289 m_a3_proc_1 + w_a0 - w_a3 >= 
       -2577.889422664493
 c201: K_a3_a1 - 1289 m_a1_proc_1 - 1289 m_a3_proc_1 + w_a1 - w_a3 >= 
       -2577.889422664493
 c202: K_a3_a2 - 1289 m_a2_proc_1 - 1289 m_a3_proc_1 + w_a2 - w_a3 >= 
       -2577.889422664493
 c203: K_a3_a4 - 1289 m_a3_proc_1 - 1289 m_a4_proc_1 + w_a4 - w_a3 >= 
       -2577.889422664493
 c204: K_a3_a6 - 1289 m_a3_proc_1 - 1289 m_a6_proc_1 + w_a6 - w_a3 >= 
       -2577.889422664493
 c205: K_a3_a9 - 1289 m_a3_proc_1 - 1289 m_a9_proc_1 + w_a9 - w_a3 >= 
       -2577.889422664493
 c206: - 1289 m_a3_proc_2 + w_a2 - w_a3 >= -1289.902290469246
 c207: - 1289 m_a3_proc_2 + w_a7 - w_a3 >= -1289.902290469246
 c208: K_a3_a0 - 1289 m_a0_proc_2 - 1289 m_a3_proc_2 + w_a0 - w_a3 >= 
       -2577.902290469246
 c209: K_a3_a1 - 1289 m_a1_proc_2 - 1289 m_a3_proc_2 + w_a1 - w_a3 >= 
       -2577.902290469246
 c210: K_a3_a2 - 1289 m_a2_proc_2 - 1289 m_a3_proc_2 + w_a2 - w_a3 >= 
       -2577.902290469246
 c211: K_a3_a4 - 1289 m_a3_proc_2 - 1289 m_a4_proc_2 + w_a4 - w_a3 >= 
       -2577.902290469246
 c212: K_a3_a5 - 1289 m_a3_proc_2 - 1289 m_a5_proc_2 + w_a5 - w_a3 >= 
       -2577.902290469246
 c213: K_a3_a6 - 1289 m_a3_proc_2 - 1289 m_a6_proc_2 + w_a6 - w_a3 >= 
       -2577.902290469246
 c214: K_a3_a7 - 1289 m_a3_proc_2 - 1289 m_a7_proc_2 + w_a7 - w_a3 >= 
       -2577.902290469246
 c215: K_a3_a8 - 1289 m_a3_proc_2 - 1289 m_a8_proc_2 + w_a8 - w_a3 >= 
       -2577.902290469246
 c216: K_a3_a9 - 1289 m_a3_proc_2 - 1289 m_a9_proc_2 + w_a9 - w_a3 >= 
       -2577.902290469246
 c217: - 1289 m_a4_proc_0 + w_a0 - w_a4 >= -1288.928283434846
 c218: K_a4_a1 - 1289 m_a1_proc_0 - 1289 m_a4_proc_0 + w_a1 - w_a4 >= 
       -2577.928283434846
 c219: K_a4_a3 - 1289 m_a3_proc_0 - 1289 m_a4_proc_0 + w_a3 - w_a4 >= 
       -2577.928283434846
 c220: K_a4_a5 - 1289 m_a4_proc_0 - 1289 m_a5_proc_0 + w_a5 - w_a4 >= 
       -2577.928283434846
 c221: K_a4_a6 - 1289 m_a4_proc_0 - 1289 m_a6_proc_0 + w_a6 - w_a4 >= 
       -2577.928283434846
 c222: K_a4_a7 - 1289 m_a4_proc_0 - 1289 m_a7_proc_0 + w_a7 - w_a4 >= 
       -2577.928283434846
 c223: K_a4_a8 - 1289 m_a4_proc_0 - 1289 m_a8_proc_0 + w_a8 - w_a4 >= 
       -2577.928283434846
 c224: K_a4_a9 - 1289 m_a4_proc_0 - 1289 m_a9_proc_0 + w_a9 - w_a4 >= 
       -2577.928283434846
 c225: - 1289 m_a4_proc_1 + w_a0 - w_a4 >= -1288.905464527752
 c226: K_a4_a0 - 1289 m_a0_proc_1 - 1289 m_a4_proc_1 + w_a0 - w_a4 >= 
       -2577.905464527752
 c227: K_a4_a1 - 1289 m_a1_proc_1 - 1289 m_a4_proc_1 + w_a1 - w_a4 >= 
       -2577.905464527752
 c228: K_a4_a2 - 1289 m_a2_proc_1 - 1289 m_a4_proc_1 + w_a2 - w_a4 >= 
       -2577.905464527752
 c229: K_a4_a3 - 1289 m_a3_proc_1 - 1289 m_a4_proc_1 + w_a3 - w_a4 >= 
       -2577.905464527752
 c230: K_a4_a6 - 1289 m_a4_proc_1 - 1289 m_a6_proc_1 + w_a6 - w_a4 >= 
       -2577.905464527752
 c231: K_a4_a9 - 1289 m_a4_proc_1 - 1289 m_a9_proc_1 + w_a9 - w_a4 >= 
       -2577.905464527752
 c232: - 1289 m_a4_proc_2 + w_a0 - w_a4 >= -1288.901089474136
 c233: K_a4_a0 - 1289 m_a0_proc_2 - 1289 m_a4_proc_2 + w_a0 - w_a4 >= 
       -2577.901089474136
 c234: K_a4_a1 - 1289 m_a1_proc_2 - 1289 m_a4_proc_2 + w_a1 - w_a4 >= 
       -2577.901089474136
 c235: K_a4_a2 - 1289 m_a2_proc_2 - 1289 m_a4_proc_2 + w_a2 - w_a4 >= 
       -2577.901089474136
 c236: K_a4_a3 - 1289 m_a3_proc_2 - 1289 m_a4_proc_2 + w_a3 - w_a4 >= 
       -2577.901089474136
 c237: K_a4_a5 - 1289 m_a4_proc_2 - 1289 m_a5_proc_2 + w_a5 - w_a4 >= 
       -2577.901089474136
 c238: K_a4_a6 - 1289 m_a4_proc_2 - 1289 m_a6_proc_2 + w_a6 - w_a4 >= 
       -2577.901089474136
 c239: K_a4_a7 - 1289 m_a4_proc_2 - 1289 m_a7_proc_2 + w_a7 - w_a4 >= 
       -2577.901089474136
 c240: K_a4_a8 - 1289 m_a4_proc_2 - 1289 m_a8_proc_2 + w_a8 - w_a4 >= 
       -2577.901089474136
 c241: K_a4_a9 - 1289 m_a4_proc_2 - 1289 m_a9_proc_2 + w_a9 - w_a4 >= 
       -2577.901089474136
 c242: - 1289 m_a4_proc_3 + w_a0 - w_a4 >= -1288.898086986360
 c243: K_a4_a0 - 1289 m_a0_proc_3 - 1289 m_a4_proc_3 + w_a0 - w_a4 >= 
       -2577.898086986360
 c244: K_a4_a2 - 1289 m_a2_proc_3 - 1289 m_a4_proc_3 + w_a2 - w_a4 >= 
       -2577.898086986360
 c245: K_a4_a5 - 1289 m_a4_proc_3 - 1289 m_a5_proc_3 + w_a5 - w_a4 >= 
       -2577.898086986360
 c246: K_a4_a6 - 1289 m_a4_proc_3 - 1289 m_a6_proc_3 + w_a6 - w_a4 >= 
       -2577.898086986360
 c247: K_a4_a7 - 1289 m_a4_proc_3 - 1289 m_a7_proc_3 + w_a7 - w_a4 >= 
       -2577.898086986360
 c248: K_a4_a8 - 1289 m_a4_proc_3 - 1289 m_a8_proc_3 + w_a8 - w_a4 >= 
       -2577.898086986360
 c249: K_a4_a9 - 1289 m_a4_proc_3 - 1289 m_a9_proc_3 + w_a9 - w_a4 >= 
       -2577.898086986360
 c250: - 1289 m_a5_proc_0 + w_a4 - w_a5 >= -1288.898430127820
 c251: - 1289 m_a5_proc_0 + w_a8 - w_a5 >= -1288.898430127820
 c252: - 1289 m_a5_proc_0 >= -1289.898430127820
 c253: K_a5_a1 - 1289 m_a1_proc_0 - 1289 m_a5_proc_0 + w_a1 - w_a5 >= 
       -2577.898430127820
 c254: K_a5_a3 - 1289 m_a3_proc_0 - 1289 m_a5_proc_0 + w_a3 - w_a5 >= 
       -2577.898430127820
 c255: K_a5_a4 - 1289 m_a4_proc_0 - 1289 m_a5_proc_0 + w_a4 - w_a5 >= 
       -2577.898430127820
 c256: K_a5_a6 - 1289 m_a5_proc_0 - 1289 m_a6_proc_0 + w_a6 - w_a5 >= 
       -2577.898430127820
 c257: K_a5_a7 - 1289 m_a5_proc_0 - 1289 m_a7_proc_0 + w_a7 - w_a5 >= 
       -2577.898430127820
 c258: K_a5_a8 - 1289 m_a5_proc_0 - 1289 m_a8_proc_0 + w_a8 - w_a5 >= 
       -2577.898430127820
 c259: K_a5_a9 - 1289 m_a5_proc_0 - 1289 m_a9_proc_0 + w_a9 - w_a5 >= 
       -2577.898430127820
 c260: - 1289 m_a5_proc_2 + w_a4 - w_a5 >= -1288.928969717766
 c261: - 1289 m_a5_proc_2 + w_a8 - w_a5 >= -1288.928969717766
 c262: - 1289 m_a5_proc_2 >= -1289.928969717766
 c263: K_a5_a0 - 1289 m_a0_proc_2 - 1289 m_a5_proc_2 + w_a0 - w_a5 >= 
       -2577.928969717766
 c264: K_a5_a1 - 1289 m_a1_proc_2 - 1289 m_a5_proc_2 + w_a1 - w_a5 >= 
       -2577.928969717766
 c265: K_a5_a2 - 1289 m_a2_proc_2 - 1289 m_a5_proc_2 + w_a2 - w_a5 >= 
       -2577.928969717766
 c266: K_a5_a3 - 1289 m_a3_proc_2 - 1289 m_a5_proc_2 + w_a3 - w_a5 >= 
       -2577.928969717766
 c267: K_a5_a4 - 1289 m_a4_proc_2 - 1289 m_a5_proc_2 + w_a4 - w_a5 >= 
       -2577.928969717766
 c268: K_a5_a6 - 1289 m_a5_proc_2 - 1289 m_a6_proc_2 + w_a6 - w_a5 >= 
       -2577.928969717766
 c269: K_a5_a7 - 1289 m_a5_proc_2 - 1289 m_a7_proc_2 + w_a7 - w_a5 >= 
       -2577.928969717766
 c270: K_a5_a8 - 1289 m_a5_proc_2 - 1289 m_a8_proc_2 + w_a8 - w_a5 >= 
       -2577.928969717766
 c271: K_a5_a9 - 1289 m_a5_proc_2 - 1289 m_a9_proc_2 + w_a9 - w_a5 >= 
       -2577.928969717766
 c272: - 1289 m_a5_proc_3 + w_a4 - w_a5 >= -1288.899545337565
 c273: - 1289 m_a5_proc_3 + w_a8 - w_a5 >= -1288.899545337565
 c274: - 1289 m_a5_proc_3 >= -1289.899545337565
 c275: K_a5_a0 - 1289 m_a0_proc_3 - 1289 m_a5_proc_3 + w_a0 - w_a5 >= 
       -2577.899545337566
 c276: K_a5_a2 - 1289 m_a2_proc_3 - 1289 m_a5_proc_3 + w_a2 - w_a5 >= 
       -2577.899545337566
 c277: K_a5_a4 - 1289 m_a4_proc_3 - 1289 m_a5_proc_3 + w_a4 - w_a5 >= 
       -2577.899545337566
 c278: K_a5_a6 - 1289 m_a5_proc_3 - 1289 m_a6_proc_3 + w_a6 - w_a5 >= 
       -2577.899545337566
 c279: K_a5_a7 - 1289 m_a5_proc_3 - 1289 m_a7_proc_3 + w_a7 - w_a5 >= 
       -2577.899545337566
 c280: K_a5_a8 - 1289 m_a5_proc_3 - 1289 m_a8_proc_3 + w_a8 - w_a5 >= 
       -2577.899545337566
 c281: K_a5_a9 - 1289 m_a5_proc_3 - 1289 m_a9_proc_3 + w_a9 - w_a5 >= 
       -2577.899545337566
 c282: - 1289 m_a6_proc_0 + w_a4 - w_a6 >= -1288.902890966801
 c283: K_a6_a1 - 1289 m_a1_proc_0 - 1289 m_a6_proc_0 + w_a1 - w_a6 >= 
       -2577.902890966801
 c284: K_a6_a3 - 1289 m_a3_proc_0 - 1289 m_a6_proc_0 + w_a3 - w_a6 >= 
       -2577.902890966801
 c285: K_a6_a4 - 1289 m_a4_proc_0 - 1289 m_a6_proc_0 + w_a4 - w_a6 >= 
       -2577.902890966801
 c286: K_a6_a5 - 1289 m_a5_proc_0 - 1289 m_a6_proc_0 + w_a5 - w_a6 >= 
       -2577.902890966801
 c287: K_a6_a7 - 1289 m_a6_proc_0 - 1289 m_a7_proc_0 + w_a7 - w_a6 >= 
       -2577.902890966801
 c288: K_a6_a8 - 1289 m_a6_proc_0 - 1289 m_a8_proc_0 + w_a8 - w_a6 >= 
       -2577.902890966801
 c289: K_a6_a9 - 1289 m_a6_proc_0 - 1289 m_a9_proc_0 + w_a9 - w_a6 >= 
       -2577.902890966801
 c290: - 1289 m_a6_proc_1 + w_a4 - w_a6 >= -1288.921506391010
 c291: K_a6_a0 - 1289 m_a0_proc_1 - 1289 m_a6_proc_1 + w_a0 - w_a6 >= 
       -2577.921506391010
 c292: K_a6_a1 - 1289 m_a1_proc_1 - 1289 m_a6_proc_1 + w_a1 - w_a6 >= 
       -2577.921506391010
 c293: K_a6_a2 - 1289 m_a2_proc_1 - 1289 m_a6_proc_1 + w_a2 - w_a6 >= 
       -2577.921506391010
 c294: K_a6_a3 - 1289 m_a3_proc_1 - 1289 m_a6_proc_1 + w_a3 - w_a6 >= 
       -2577.921506391010
 c295: K_a6_a4 - 1289 m_a4_proc_1 - 1289 m_a6_proc_1 + w_a4 - w_a6 >= 
       -2577.921506391010
 c296: K_a6_a9 - 1289 m_a6_proc_1 - 1289 m_a9_proc_1 + w_a9 - w_a6 >= 
       -2577.921506391010
 c297: - 1289 m_a6_proc_2 + w_a4 - w_a6 >= -1288.895084498585
 c298: K_a6_a0 - 1289 m_a0_proc_2 - 1289 m_a6_proc_2 + w_a0 - w_a6 >= 
       -2577.895084498585
 c299: K_a6_a1 - 1289 m_a1_proc_2 - 1289 m_a6_proc_2 + w_a1 - w_a6 >= 
       -2577.895084498585
 c300: K_a6_a2 - 1289 m_a2_proc_2 - 1289 m_a6_proc_2 + w_a2 - w_a6 >= 
       -2577.895084498585
 c301: K_a6_a3 - 1289 m_a3_proc_2 - 1289 m_a6_proc_2 + w_a3 - w_a6 >= 
       -2577.895084498585
 c302: K_a6_a4 - 1289 m_a4_proc_2 - 1289 m_a6_proc_2 + w_a4 - w_a6 >= 
       -2577.895084498585
 c303: K_a6_a5 - 1289 m_a5_proc_2 - 1289 m_a6_proc_2 + w_a5 - w_a6 >= 
       -2577.895084498585
 c304: K_a6_a7 - 1289 m_a6_proc_2 - 1289 m_a7_proc_2 + w_a7 - w_a6 >= 
       -2577.895084498585
 c305: K_a6_a8 - 1289 m_a6_proc_2 - 1289 m_a8_proc_2 + w_a8 - w_a6 >= 
       -2577.895084498585
 c306: K_a6_a9 - 1289 m_a6_proc_2 - 1289 m_a9_proc_2 + w_a9 - w_a6 >= 
       -2577.895084498585
 c307: - 1289 m_a6_proc_3 + w_a4 - w_a6 >= -1288.939349746933
 c308: K_a6_a0 - 1289 m_a0_proc_3 - 1289 m_a6_proc_3 + w_a0 - w_a6 >= 
       -2577.939349746933
 c309: K_a6_a2 - 1289 m_a2_proc_3 - 1289 m_a6_proc_3 + w_a2 - w_a6 >= 
       -2577.939349746933
 c310: K_a6_a4 - 1289 m_a4_proc_3 - 1289 m_a6_proc_3 + w_a4 - w_a6 >= 
       -2577.939349746933
 c311: K_a6_a5 - 1289 m_a5_proc_3 - 1289 m_a6_proc_3 + w_a5 - w_a6 >= 
       -2577.939349746933
 c312: K_a6_a7 - 1289 m_a6_proc_3 - 1289 m_a7_proc_3 + w_a7 - w_a6 >= 
       -2577.939349746933
 c313: K_a6_a8 - 1289 m_a6_proc_3 - 1289 m_a8_proc_3 + w_a8 - w_a6 >= 
       -2577.939349746933
 c314: K_a6_a9 - 1289 m_a6_proc_3 - 1289 m_a9_proc_3 + w_a9 - w_a6 >= 
       -2577.939349746933
 c315: - 1289 m_a7_proc_0 + w_a1 - w_a7 >= -1288.950416059020
 c316: K_a7_a1 - 1289 m_a1_proc_0 - 1289 m_a7_proc_0 + w_a1 - w_a7 >= 
       -2577.950416059020
 c317: K_a7_a3 - 1289 m_a3_proc_0 - 1289 m_a7_proc_0 + w_a3 - w_a7 >= 
       -2577.950416059020
 c318: K_a7_a4 - 1289 m_a4_proc_0 - 1289 m_a7_proc_0 + w_a4 - w_a7 >= 
       -2577.950416059020
 c319: K_a7_a5 - 1289 m_a5_proc_0 - 1289 m_a7_proc_0 + w_a5 - w_a7 >= 
       -2577.950416059020
 c320: K_a7_a6 - 1289 m_a6_proc_0 - 1289 m_a7_proc_0 + w_a6 - w_a7 >= 
       -2577.950416059020
 c321: K_a7_a8 - 1289 m_a7_proc_0 - 1289 m_a8_proc_0 + w_a8 - w_a7 >= 
       -2577.950416059020
 c322: K_a7_a9 - 1289 m_a7_proc_0 - 1289 m_a9_proc_0 + w_a9 - w_a7 >= 
       -2577.950416059020
 c323: - 1289 m_a7_proc_2 + w_a1 - w_a7 >= -1288.902290469246
 c324: K_a7_a0 - 1289 m_a0_proc_2 - 1289 m_a7_proc_2 + w_a0 - w_a7 >= 
       -2577.902290469246
 c325: K_a7_a1 - 1289 m_a1_proc_2 - 1289 m_a7_proc_2 + w_a1 - w_a7 >= 
       -2577.902290469246
 c326: K_a7_a2 - 1289 m_a2_proc_2 - 1289 m_a7_proc_2 + w_a2 - w_a7 >= 
       -2577.902290469246
 c327: K_a7_a3 - 1289 m_a3_proc_2 - 1289 m_a7_proc_2 + w_a3 - w_a7 >= 
       -2577.902290469246
 c328: K_a7_a4 - 1289 m_a4_proc_2 - 1289 m_a7_proc_2 + w_a4 - w_a7 >= 
       -2577.902290469246
 c329: K_a7_a5 - 1289 m_a5_proc_2 - 1289 m_a7_proc_2 + w_a5 - w_a7 >= 
       -2577.902290469246
 c330: K_a7_a6 - 1289 m_a6_proc_2 - 1289 m_a7_proc_2 + w_a6 - w_a7 >= 
       -2577.902290469246
 c331: K_a7_a8 - 1289 m_a7_proc_2 - 1289 m_a8_proc_2 + w_a8 - w_a7 >= 
       -2577.902290469246
 c332: K_a7_a9 - 1289 m_a7_proc_2 - 1289 m_a9_proc_2 + w_a9 - w_a7 >= 
       -2577.902290469246
 c333: - 1289 m_a7_proc_3 + w_a1 - w_a7 >= -1288.895856566870
 c334: K_a7_a0 - 1289 m_a0_proc_3 - 1289 m_a7_proc_3 + w_a0 - w_a7 >= 
       -2577.895856566869
 c335: K_a7_a2 - 1289 m_a2_proc_3 - 1289 m_a7_proc_3 + w_a2 - w_a7 >= 
       -2577.895856566869
 c336: K_a7_a4 - 1289 m_a4_proc_3 - 1289 m_a7_proc_3 + w_a4 - w_a7 >= 
       -2577.895856566869
 c337: K_a7_a5 - 1289 m_a5_proc_3 - 1289 m_a7_proc_3 + w_a5 - w_a7 >= 
       -2577.895856566869
 c338: K_a7_a6 - 1289 m_a6_proc_3 - 1289 m_a7_proc_3 + w_a6 - w_a7 >= 
       -2577.895856566869
 c339: K_a7_a8 - 1289 m_a7_proc_3 - 1289 m_a8_proc_3 + w_a8 - w_a7 >= 
       -2577.895856566869
 c340: K_a7_a9 - 1289 m_a7_proc_3 - 1289 m_a9_proc_3 + w_a9 - w_a7 >= 
       -2577.895856566869
 c341: - 1289 m_a8_proc_0 + w_a9 - w_a8 >= -1288.906408166767
 c342: - 1289 m_a8_proc_0 >= -1289.906408166767
 c343: K_a8_a1 - 1289 m_a1_proc_0 - 1289 m_a8_proc_0 + w_a1 - w_a8 >= 
       -2577.906408166767
 c344: K_a8_a3 - 1289 m_a3_proc_0 - 1289 m_a8_proc_0 + w_a3 - w_a8 >= 
       -2577.906408166767
 c345: K_a8_a4 - 1289 m_a4_proc_0 - 1289 m_a8_proc_0 + w_a4 - w_a8 >= 
       -2577.906408166767
 c346: K_a8_a5 - 1289 m_a5_proc_0 - 1289 m_a8_proc_0 + w_a5 - w_a8 >= 
       -2577.906408166767
 c347: K_a8_a6 - 1289 m_a6_proc_0 - 1289 m_a8_proc_0 + w_a6 - w_a8 >= 
       -2577.906408166767
 c348: K_a8_a7 - 1289 m_a7_proc_0 - 1289 m_a8_proc_0 + w_a7 - w_a8 >= 
       -2577.906408166767
 c349: K_a8_a9 - 1289 m_a8_proc_0 - 1289 m_a9_proc_0 + w_a9 - w_a8 >= 
       -2577.906408166767
 c350: - 1289 m_a8_proc_2 + w_a9 - w_a8 >= -1288.893626147379
 c351: - 1289 m_a8_proc_2 >= -1289.893626147379
 c352: K_a8_a0 - 1289 m_a0_proc_2 - 1289 m_a8_proc_2 + w_a0 - w_a8 >= 
       -2577.893626147379
 c353: K_a8_a1 - 1289 m_a1_proc_2 - 1289 m_a8_proc_2 + w_a1 - w_a8 >= 
       -2577.893626147379
 c354: K_a8_a2 - 1289 m_a2_proc_2 - 1289 m_a8_proc_2 + w_a2 - w_a8 >= 
       -2577.893626147379
 c355: K_a8_a3 - 1289 m_a3_proc_2 - 1289 m_a8_proc_2 + w_a3 - w_a8 >= 
       -2577.893626147379
 c356: K_a8_a4 - 1289 m_a4_proc_2 - 1289 m_a8_proc_2 + w_a4 - w_a8 >= 
       -2577.893626147379
 c357: K_a8_a5 - 1289 m_a5_proc_2 - 1289 m_a8_proc_2 + w_a5 - w_a8 >= 
       -2577.893626147379
 c358: K_a8_a6 - 1289 m_a6_proc_2 - 1289 m_a8_proc_2 + w_a6 - w_a8 >= 
       -2577.893626147379
 c359: K_a8_a7 - 1289 m_a7_proc_2 - 1289 m_a8_proc_2 + w_a7 - w_a8 >= 
       -2577.893626147379
 c360: K_a8_a9 - 1289 m_a8_proc_2 - 1289 m_a9_proc_2 + w_a9 - w_a8 >= 
       -2577.893626147379
 c361: - 1289 m_a8_proc_3 + w_a9 - w_a8 >= -1288.931200137257
 c362: - 1289 m_a8_proc_3 >= -1289.931200137257
 c363: K_a8_a0 - 1289 m_a0_proc_3 - 1289 m_a8_proc_3 + w_a0 - w_a8 >= 
       -2577.931200137256
 c364: K_a8_a2 - 1289 m_a2_proc_3 - 1289 m_a8_proc_3 + w_a2 - w_a8 >= 
       -2577.931200137256
 c365: K_a8_a4 - 1289 m_a4_proc_3 - 1289 m_a8_proc_3 + w_a4 - w_a8 >= 
       -2577.931200137256
 c366: K_a8_a5 - 1289 m_a5_proc_3 - 1289 m_a8_proc_3 + w_a5 - w_a8 >= 
       -2577.931200137256
 c367: K_a8_a6 - 1289 m_a6_proc_3 - 1289 m_a8_proc_3 + w_a6 - w_a8 >= 
       -2577.931200137256
 c368: K_a8_a7 - 1289 m_a7_proc_3 - 1289 m_a8_proc_3 + w_a7 - w_a8 >= 
       -2577.931200137256
 c369: K_a8_a9 - 1289 m_a8_proc_3 - 1289 m_a9_proc_3 + w_a9 - w_a8 >= 
       -2577.931200137256
 c370: - 1289 m_a9_proc_0 + w_a7 - w_a9 >= -1288.915758771554
 c371: K_a9_a1 - 1289 m_a1_proc_0 - 1289 m_a9_proc_0 + w_a1 - w_a9 >= 
       -2577.915758771554
 c372: K_a9_a3 - 1289 m_a3_proc_0 - 1289 m_a9_proc_0 + w_a3 - w_a9 >= 
       -2577.915758771554
 c373: K_a9_a4 - 1289 m_a4_proc_0 - 1289 m_a9_proc_0 + w_a4 - w_a9 >= 
       -2577.915758771554
 c374: K_a9_a5 - 1289 m_a5_proc_0 - 1289 m_a9_proc_0 + w_a5 - w_a9 >= 
       -2577.915758771554
 c375: K_a9_a6 - 1289 m_a6_proc_0 - 1289 m_a9_proc_0 + w_a6 - w_a9 >= 
       -2577.915758771554
 c376: K_a9_a7 - 1289 m_a7_proc_0 - 1289 m_a9_proc_0 + w_a7 - w_a9 >= 
       -2577.915758771554
 c377: K_a9_a8 - 1289 m_a8_proc_0 - 1289 m_a9_proc_0 + w_a8 - w_a9 >= 
       -2577.915758771554
 c378: - 1289 m_a9_proc_1 + w_a7 - w_a9 >= -1288.915758771554
 c379: K_a9_a0 - 1289 m_a0_proc_1 - 1289 m_a9_proc_1 + w_a0 - w_a9 >= 
       -2577.915758771554
 c380: K_a9_a1 - 1289 m_a1_proc_1 - 1289 m_a9_proc_1 + w_a1 - w_a9 >= 
       -2577.915758771554
 c381: K_a9_a2 - 1289 m_a2_proc_1 - 1289 m_a9_proc_1 + w_a2 - w_a9 >= 
       -2577.915758771554
 c382: K_a9_a3 - 1289 m_a3_proc_1 - 1289 m_a9_proc_1 + w_a3 - w_a9 >= 
       -2577.915758771554
 c383: K_a9_a4 - 1289 m_a4_proc_1 - 1289 m_a9_proc_1 + w_a4 - w_a9 >= 
       -2577.915758771554
 c384: K_a9_a6 - 1289 m_a6_proc_1 - 1289 m_a9_proc_1 + w_a6 - w_a9 >= 
       -2577.915758771554
 c385: - 1289 m_a9_proc_2 + w_a7 - w_a9 >= -1288.923822595865
 c386: K_a9_a0 - 1289 m_a0_proc_2 - 1289 m_a9_proc_2 + w_a0 - w_a9 >= 
       -2577.923822595865
 c387: K_a9_a1 - 1289 m_a1_proc_2 - 1289 m_a9_proc_2 + w_a1 - w_a9 >= 
       -2577.923822595865
 c388: K_a9_a2 - 1289 m_a2_proc_2 - 1289 m_a9_proc_2 + w_a2 - w_a9 >= 
       -2577.923822595865
 c389: K_a9_a3 - 1289 m_a3_proc_2 - 1289 m_a9_proc_2 + w_a3 - w_a9 >= 
       -2577.923822595865
 c390: K_a9_a4 - 1289 m_a4_proc_2 - 1289 m_a9_proc_2 + w_a4 - w_a9 >= 
       -2577.923822595865
 c391: K_a9_a5 - 1289 m_a5_proc_2 - 1289 m_a9_proc_2 + w_a5 - w_a9 >= 
       -2577.923822595865
 c392: K_a9_a6 - 1289 m_a6_proc_2 - 1289 m_a9_proc_2 + w_a6 - w_a9 >= 
       -2577.923822595865
 c393: K_a9_a7 - 1289 m_a7_proc_2 - 1289 m_a9_proc_2 + w_a7 - w_a9 >= 
       -2577.923822595865
 c394: K_a9_a8 - 1289 m_a8_proc_2 - 1289 m_a9_proc_2 + w_a8 - w_a9 >= 
       -2577.923822595865
 c395: - 1289 m_a9_proc_3 + w_a7 - w_a9 >= -1288.930856995797
 c396: K_a9_a0 - 1289 m_a0_proc_3 - 1289 m_a9_proc_3 + w_a0 - w_a9 >= 
       -2577.930856995797
 c397: K_a9_a2 - 1289 m_a2_proc_3 - 1289 m_a9_proc_3 + w_a2 - w_a9 >= 
       -2577.930856995797
 c398: K_a9_a4 - 1289 m_a4_proc_3 - 1289 m_a9_proc_3 + w_a4 - w_a9 >= 
       -2577.930856995797
 c399: K_a9_a5 - 1289 m_a5_proc_3 - 1289 m_a9_proc_3 + w_a5 - w_a9 >= 
       -2577.930856995797
 c400: K_a9_a6 - 1289 m_a6_proc_3 - 1289 m_a9_proc_3 + w_a6 - w_a9 >= 
       -2577.930856995797
 c401: K_a9_a7 - 1289 m_a7_proc_3 - 1289 m_a9_proc_3 + w_a7 - w_a9 >= 
       -2577.930856995797
 c402: K_a9_a8 - 1289 m_a8_proc_3 - 1289 m_a9_proc_3 + w_a8 - w_a9 >= 
       -2577.930856995797
 c403: z - 0.000120845921 K_a3_a5 - 0.031903323263 m_a0_proc_1
       - 0.062598187311 m_a0_proc_2 - 0.007854984894 m_a1_proc_0
       - 0.137643504532 m_a3_proc_0 - 0.137643504532 m_a3_proc_1
       + 0.155770392749 m_a3_proc_2 + 0.155770392749 m_a5_proc_2
       - 0.025135951662 m_a6_proc_3 - 0.034924471299 m_a8_proc_3
       - 0.009909365559 m_a9_proc_3 <= 0.311540785498
 c404: z - 0.000000000138 K_a8_a7 - 0.046057228256 m_a0_proc_1
       - 0.090369864532 m_a0_proc_2 - 0.011339847866 m_a1_proc_0
       - 0.060362882487 m_a3_proc_0 - 0.036287513171 m_a6_proc_3
       + 0.000000177936 m_a7_proc_0 + 0.000000177936 m_a8_proc_0
       - 0.000000171172 m_a8_proc_2 - 0.000000012976 m_a9_proc_0
       - 0.000000012976 m_a9_proc_1 + 0.000000011319 m_a9_proc_3 <= 
       0.000174815070
 c405: z - 0.000122115032 K_a3_a5 - 0.000122115032 K_a8_a9
       + 0.157406276713 m_a3_proc_0 - 0.096837220662 m_a3_proc_1
       - 0.096837220662 m_a3_proc_2 - 0.032482598608 m_a4_proc_0
       + 0.157406276713 m_a5_proc_0 - 0.077665160581 m_a7_proc_0
       - 0.009158627427 m_a7_proc_2 - 0.151422640127 m_a8_proc_0
       + 0.157406276713 m_a8_proc_2 - 0.151422640127 m_a8_proc_3
       + 0.157406276713 m_a9_proc_2 - 0.010013432654 m_a9_proc_3 <= 
       0.629625106851
 c406: z - 0.000145219249 K_a4_a5 - 0.000144258511 K_a8_a3
       - 0.000244027461 m_a0_proc_1 - 0.000497662303 m_a0_proc_3
       + 0.185949221004 m_a3_proc_2 + 0.187187612332 m_a4_proc_0
       - 0.121658848722 m_a4_proc_1 - 0.121707846362 m_a4_proc_2
       - 0.121741472194 m_a4_proc_3 + 0.187187612332 m_a5_proc_0
       - 0.051698052747 m_a5_proc_2 - 0.001887850241 m_a5_proc_3
       - 0.091748413156 m_a7_proc_0 - 0.010819388344 m_a7_proc_2
       - 0.179023703920 m_a8_proc_0 + 0.185949221004 m_a8_proc_2
       - 0.179301357212 m_a8_proc_3 <= 0.746416964446
 c407: z - 0.000000053345 K_a8_a1 + 0.000000053345 K_a8_a3
       + 0.000068761707 m_a1_proc_0 - 0.000068761707 m_a3_proc_2
       + 0.000068761707 m_a8_proc_0 - 0.000068761707 m_a8_proc_2 <= 
       0.000217607888
 c408: z - 0.000000014967 K_a8_a0 + 0.000000014967 K_a8_a1
       + 0.000019292587 m_a0_proc_2 - 0.000019292587 m_a1_proc_0
       - 0.000019292587 m_a8_proc_0 + 0.000019292587 m_a8_proc_2 <= 
       0.000217639514
 c409: z - 0.039046887010 m_a0_proc_2 - 0.009992313605 m_a1_proc_0
       - 0.052281718004 m_a3_proc_0 - 0.000908135954 m_a3_proc_2
       - 0.054112221368 m_a4_proc_0 - 0.013220599539 m_a4_proc_1
       - 0.005380476556 m_a4_proc_2 - 0.013989239047 m_a6_proc_0
       - 0.047348193697 m_a6_proc_1 - 0.079323597233 m_a6_proc_3
       - 0.097770945427 m_a7_proc_0 - 0.011529592621 m_a7_proc_2
       + 0.000908135954 m_a8_proc_0 - 0.002550389568 m_a8_proc_2
       - 0.000768639508 m_a8_proc_3 <= 0.000153727902
 c410: z + 0.000000060249 K_a5_a0 - 0.000000060249 K_a8_a4
       - 0.000077660341 m_a0_proc_2 + 0.000077660341 m_a4_proc_0
       - 0.000077660341 m_a5_proc_2 + 0.000077660341 m_a8_proc_0 <= 
       0.000217616895
 c411: z - 0.000000018820 K_a8_a3 + 0.000000018820 K_a8_a4
       + 0.000024259396 m_a3_proc_2 - 0.000024259396 m_a4_proc_0
       - 0.000024259396 m_a8_proc_0 + 0.000024259396 m_a8_proc_2 <= 
       0.000217637682
 c412: z - 0.000000128481 K_a0_a8 + 0.000000128481 K_a7_a5
       + 0.000165611425 m_a0_proc_2 - 0.000165611425 m_a5_proc_2
       - 0.000165611425 m_a7_proc_2 + 0.000165611425 m_a8_proc_2 <= 
       0.000217569267

Bounds
 -inf <= K_a0_a1 <= 1000000000
 -inf <= K_a0_a2 <= 1000000000
 -inf <= K_a0_a3 <= 1000000000
 -inf <= K_a0_a4 <= 1000000000
 -inf <= K_a0_a5 <= 1000000000
 -inf <= K_a0_a6 <= 1000000000
 -inf <= K_a0_a7 <= 1000000000
 -inf <= K_a0_a8 <= 1000000000
 -inf <= K_a0_a9 <= 1000000000
 -inf <= K_a1_a0 <= 1000000000
 -inf <= K_a1_a2 <= 1000000000
 -inf <= K_a1_a3 <= 1000000000
 -inf <= K_a1_a4 <= 1000000000
 -inf <= K_a1_a5 <= 1000000000
 -inf <= K_a1_a6 <= 1000000000
 -inf <= K_a1_a7 <= 1000000000
 -inf <= K_a1_a8 <= 1000000000
 -inf <= K_a1_a9 <= 1000000000
 -inf <= K_a2_a0 <= 1000000000
 -inf <= K_a2_a1 <= 1000000000
 -inf <= K_a2_a3 <= 1000000000
 -inf <= K_a2_a4 <= 1000000000
 -inf <= K_a2_a5 <= 1000000000
 -inf <= K_a2_a6 <= 1000000000
 -inf <= K_a2_a7 <= 1000000000
 -inf <= K_a2_a8 <= 1000000000
 -inf <= K_a2_a9 <= 1000000000
 -inf <= K_a3_a0 <= 1000000000
 -inf <= K_a3_a1 <= 1000000000
 -inf <= K_a3_a2 <= 1000000000
 -inf <= K_a3_a4 <= 1000000000
 -inf <= K_a3_a5 <= 1000000000
 -inf <= K_a3_a6 <= 1000000000
 -inf <= K_a3_a7 <= 1000000000
 -inf <= K_a3_a8 <= 1000000000
 -inf <= K_a3_a9 <= 1000000000
 -inf <= K_a4_a0 <= 1000000000
 -inf <= K_a4_a1 <= 1000000000
 -inf <= K_a4_a2 <= 1000000000
 -inf <= K_a4_a3 <= 1000000000
 -inf <= K_a4_a5 <= 1000000000
 -inf <= K_a4_a6 <= 1000000000
 -inf <= K_a4_a7 <= 1000000000
 -inf <= K_a4_a8 <= 1000000000
 -inf <= K_a4_a9 <= 1000000000
 -inf <= K_a5_a0 <= 1000000000
 -inf <= K_a5_a1 <= 1000000000
 -inf <= K_a5_a2 <= 1000000000
 -inf <= K_a5_a3 <= 1000000000
 -inf <= K_a5_a4 <= 1000000000
 -inf <= K_a5_a6 <= 1000000000
 -inf <= K_a5_a7 <= 1000000000
 -inf <= K_a5_a8 <= 1000000000
 -inf <= K_a5_a9 <= 1000000000
 -inf <= K_a6_a0 <= 1000000000
 -inf <= K_a6_a1 <= 1000000000
 -inf <= K_a6_a2 <= 1000000000
 -inf <= K_a6_a3 <= 1000000000
 -inf <= K_a6_a4 <= 1000000000
 -inf <= K_a6_a5 <= 1000000000
 -inf <= K_a6_a7 <= 1000000000
 -inf <= K_a6_a8 <= 1000000000
 -inf <= K_a6_a9 <= 1000000000
 -inf <= K_a7_a0 <= 1000000000
 -inf <= K_a7_a1 <= 1000000000
 -inf <= K_a7_a2 <= 1000000000
 -inf <= K_a7_a3 <= 1000000000
 -inf <= K_a7_a4 <= 1000000000
 -inf <= K_a7_a5 <= 1000000000
 -inf <= K_a7_a6 <= 1000000000
 -inf <= K_a7_a8 <= 1000000000
 -inf <= K_a7_a9 <= 1000000000
 -inf <= K_a8_a0 <= 1000000000
 -inf <= K_a8_a1 <= 1000000000
 -inf <= K_a8_a2 <= 1000000000
 -inf <= K_a8_a3 <= 1000000000
 -inf <= K_a8_a4 <= 1000000000
 -inf <= K_a8_a5 <= 1000000000
 -inf <= K_a8_a6 <= 1000000000
 -inf <= K_a8_a7 <= 1000000000
 -inf <= K_a8_a9 <= 1000000000
 -inf <= K_a9_a0 <= 1000000000
 -inf <= K_a9_a1 <= 1000000000
 -inf <= K_a9_a2 <= 1000000000
 -inf <= K_a9_a3 <= 1000000000
 -inf <= K_a9_a4 <= 1000000000
 -inf <= K_a9_a5 <= 1000000000
 -inf <= K_a9_a6 <= 1000000000
 -inf <= K_a9_a7 <= 1000000000
 -inf <= K_a9_a8 <= 1000000000
 0 <= m_a0_proc_1 <= 1
 0 <= m_a0_proc_2 <= 1
 0 <= m_a0_proc_3 <= 1
 0 <= m_a1_proc_0 <= 1
 0 <= m_a1_proc_1 <= 1
 0 <= m_a1_proc_2 <= 1
 0 <= m_a2_proc_1 <= 1
 0 <= m_a2_proc_2 <= 1
 0 <= m_a2_proc_3 <= 1
 0 <= m_a3_proc_0 <= 1
 0 <= m_a3_proc_1 <= 1
 0 <= m_a3_proc_2 <= 1
 0 <= m_a4_proc_0 <= 1
 0 <= m_a4_proc_1 <= 1
 0 <= m_a4_proc_2 <= 1
 0 <= m_a4_proc_3 <= 1
 0 <= m_a5_proc_0 <= 1
 0 <= m_a5_proc_2 <= 1
 0 <= m_a5_proc_3 <= 1
 0 <= m_a6_proc_0 <= 1
 0 <= m_a6_proc_1 <= 1
 0 <= m_a6_proc_2 <= 1
 0 <= m_a6_proc_3 <= 1
 0 <= m_a7_proc_0 <= 1
 0 <= m_a7_proc_2 <= 1
 0 <= m_a7_proc_3 <= 1
 0 <= m_a8_proc_0 <= 1
 0 <= m_a8_proc_2 <= 1
 0 <= m_a8_proc_3 <= 1
 0 <= m_a9_proc_0 <= 1
 0 <= m_a9_proc_1 <= 1
 0 <= m_a9_proc_2 <= 1
 0 <= m_a9_proc_3 <= 1

Binaries
 m_a0_proc_1 m_a0_proc_2 m_a0_proc_3 m_a1_proc_0 m_a1_proc_1 m_a1_proc_2
 m_a2_proc_1 m_a2_proc_2 m_a2_proc_3 m_a3_proc_0 m_a3_proc_1 m_a3_proc_2
 m_a4_proc_0 m_a4_proc_1 m_a4_proc_2 m_a4_proc_3 m_a5_proc_0 m_a5_proc_2
 m_a5_proc_3 m_a6_proc_0 m_a6_proc_1 m_a6_proc_2 m_a6_proc_3 m_a7_proc_0
 m_a7_proc_2 m_a7_proc_3 m_a8_proc_0 m_a8_proc_2 m_a8_proc_3 m_a9_proc_0
 m_a9_proc_1 m_a9_proc_2 m_a9_proc_3

Generals
 K_a0_a1 K_a0_a2 K_a0_a3 K_a0_a4 K_a0_a5 K_a0_a6 K_a0_a7 K_a0_a8 K_a0_a9 K_a1_a0
 K_a1_a2 K_a1_a3 K_a1_a4 K_a1_a5 K_a1_a6 K_a1_a7 K_a1_a8 K_a1_a9 K_a2_a0 K_a2_a1
 K_a2_a3 K_a2_a4 K_a2_a5 K_a2_a6 K_a2_a7 K_a2_a8 K_a2_a9 K_a3_a0 K_a3_a1 K_a3_a2
 K_a3_a4 K_a3_a5 K_a3_a6 K_a3_a7 K_a3_a8 K_a3_a9 K_a4_a0 K_a4_a1 K_a4_a2 K_a4_a3
 K_a4_a5 K_a4_a6 K_a4_a7 K_a4_a8 K_a4_a9 K_a5_a0 K_a5_a1 K_a5_a2 K_a5_a3 K_a5_a4
 K_a5_a6 K_a5_a7 K_a5_a8 K_a5_a9 K_a6_a0 K_a6_a1 K_a6_a2 K_a6_a3 K_a6_a4 K_a6_a5
 K_a6_a7 K_a6_a8 K_a6_a9 K_a7_a0 K_a7_a1 K_a7_a2 K_a7_a3 K_a7_a4 K_a7_a5 K_a7_a6
 K_a7_a8 K_a7_a9 K_a8_a0 K_a8_a1 K_a8_a2 K_a8_a3 K_a8_a4 K_a8_a5 K_a8_a6 K_a8_a7
 K_a8_a9 K_a9_a0 K_a9_a1 K_a9_a2 K_a9_a3 K_a9_a4 K_a9_a5 K_a9_a6 K_a9_a7 K_a9_a8
End
