benchmark/results/graph__10-1000-0.10-04_7/graph__10-1000-0.10-04_7_Quinton_Benders_master.txt
solution for: Quinton Benders_master
objective: 0.000277897
status: OPTIMAL_SOLUTION(2)
K_a0_a1=1
K_a0_a2=1290
K_a0_a3=1289
K_a0_a4=1
K_a0_a5=1290
K_a0_a6=1
K_a0_a7=2579
K_a0_a8=-2577
K_a0_a9=1
K_a1_a2=1289
K_a1_a3=1289
K_a1_a5=1290
K_a1_a7=1290
K_a1_a8=160
K_a1_a9=1
K_a2_a0=-1289
K_a2_a1=-1288
K_a2_a4=1289
K_a2_a5=1
K_a2_a6=1289
K_a2_a7=1289
K_a2_a8=1290
K_a2_a9=1289
K_a3_a0=-1288
K_a3_a1=-1288
K_a3_a2=1
K_a3_a4=1290
K_a3_a5=2
K_a3_a6=1290
K_a3_a7=1290
K_a3_a8=1290
K_a3_a9=1290
K_a4_a1=1
K_a4_a2=-1288
K_a4_a3=-1289
K_a4_a5=-1288
K_a4_a6=1
K_a4_a7=1290
K_a4_a8=-1288
K_a4_a9=1
K_a5_a0=-1289
K_a5_a1=-1289
K_a5_a3=-1
K_a5_a4=1289
K_a5_a6=1289
K_a5_a7=1289
K_a5_a8=1289
K_a5_a9=1289
K_a6_a1=1
K_a6_a2=-1288
K_a6_a3=-1289
K_a6_a5=-1288
K_a6_a7=1290
K_a6_a8=1290
K_a6_a9=1
K_a7_a0=-2578
K_a7_a1=-1289
K_a7_a2=-1288
K_a7_a3=-1289
K_a7_a4=-1289
K_a7_a5=-1288
K_a7_a6=-1289
K_a7_a8=1
K_a7_a9=1290
K_a8_a0=2578
K_a8_a1=-159
K_a8_a2=-1289
K_a8_a3=-1289
K_a8_a4=1289
K_a8_a5=-1288
K_a8_a6=-1289
K_a8_a9=-1289
K_a9_a2=-1288
K_a9_a3=-1289
K_a9_a5=-1288
K_a9_a7=-1289
K_a9_a8=1290
m_a0_proc_1=1
m_a1_proc_1=1
m_a2_proc_2=1
m_a3_proc_2=1
m_a4_proc_1=1
m_a5_proc_2=1
m_a6_proc_1=1
m_a7_proc_0=1
m_a8_proc_0=1
m_a9_proc_1=1
z=0.000
w_a0=0.569
w_a1=0.298
w_a2=0.222
w_a3=1.124
w_a4=0.475
w_a6=0.396
w_a7=0.249
w_a8=0.071
w_a9=0.165
